
Gurobi 9.5.2 (mac64[arm]) logging started Tue May  9 21:15:23 2023

Set parameter LogFile to value "./ccga_results/2023-05-09 21-15-22-437/FMP_TimeStampConvert_gurobi_log.txt"

Gurobi 9.5.2 (mac64[arm]) logging started Tue May  9 21:15:23 2023

Set parameter LogFile to value "./ccga_results/2023-05-09 21-15-22-437/FMP_TimeStampConvert_gurobi_log.txt"
Set parameter TimeLimit to value 180
Gurobi Optimizer version 9.5.2 build v9.5.2rc0 (mac64[arm])
Thread count: 8 physical cores, 8 logical processors, using up to 8 threads
Optimize a model with 1204 rows, 1071 columns and 5980 nonzeros
Model fingerprint: 0x6687117a
Variable types: 1047 continuous, 24 integer (24 binary)
Coefficient statistics:
  Matrix range     [9e-01, 6e+06]
  Objective range  [1e+00, 1e+00]
  Bounds range     [0e+00, 0e+00]
  RHS range        [1e+00, 6e+06]
Presolve removed 151 rows and 108 columns
Presolve time: 0.01s
Presolved: 1053 rows, 963 columns, 5424 nonzeros
Variable types: 951 continuous, 12 integer (12 binary)
Found heuristic solution: objective 18.7500000

Root relaxation: objective 1.000000e+03, 1070 iterations, 0.01 seconds (0.03 work units)

    Nodes    |    Current Node    |     Objective Bounds      |     Work
 Expl Unexpl |  Obj  Depth IntInf | Incumbent    BestBd   Gap | It/Node Time

     0     0 1000.00000    0    1   18.75000 1000.00000  5233%     -    0s
H    0     0                      99.6666667 1000.00000   903%     -    0s
     0     0 1000.00000    0    2   99.66667 1000.00000   903%     -    0s
     0     0 1000.00000    0    3   99.66667 1000.00000   903%     -    0s
     0     0 1000.00000    0    3   99.66667 1000.00000   903%     -    0s
     0     0 1000.00000    0    3   99.66667 1000.00000   903%     -    0s
H    0     0                     106.3333333 1000.00000   840%     -    0s
     0     0  330.00000    0    1  106.33333  330.00000   210%     -    0s
     0     2  330.00000    0    1  106.33333  330.00000   210%     -    0s
H    4     8                     112.0000000  321.66667   187%  14.0    0s
H    5     8                     112.8571429  321.66667   185%  11.4    0s
H   32    40                     116.9642857  321.66667   175%  14.9    0s
H   36    40                     117.6829268  321.66667   173%  21.6    0s
H   87    85                     118.8888889  321.66667   171%  41.4    0s
H  611   195                     122.3076923  321.66667   163%   109    1s
H 2709   329                     122.3076928  250.00000   104%   119    2s
  4013   254 infeasible   12       122.30769  250.00000   104%   122    5s

Cutting planes:
  Gomory: 1
  MIR: 14
  RLT: 45
  Relax-and-lift: 5

Explored 8191 nodes (1060243 simplex iterations) in 8.97 seconds (17.54 work units)
Thread count was 8 (of 8 available processors)

Solution count 10: 122.308 122.308 118.889 ... 18.75

Optimal solution found (tolerance 5.00e-02)
Best objective 1.223076928495e+02, best bound 1.223076928495e+02, gap 0.0000%

User-callback calls 17853, time in user-callback 0.01 sec

Gurobi 9.5.2 (mac64[arm]) logging started Tue May  9 21:15:32 2023

Set parameter LogFile to value "./ccga_results/2023-05-09 21-15-22-437/FMP_TimeStampConvert_gurobi_log.txt"

Gurobi 9.5.2 (mac64[arm]) logging started Tue May  9 21:15:32 2023

Set parameter LogFile to value "./ccga_results/2023-05-09 21-15-22-437/FMP_TimeStampConvert_gurobi_log.txt"
Set parameter TimeLimit to value 180
Gurobi Optimizer version 9.5.2 build v9.5.2rc0 (mac64[arm])
Thread count: 8 physical cores, 8 logical processors, using up to 8 threads
Optimize a model with 1204 rows, 1071 columns and 5870 nonzeros
Model fingerprint: 0x2405f31c
Variable types: 1047 continuous, 24 integer (24 binary)
Coefficient statistics:
  Matrix range     [9e-01, 6e+06]
  Objective range  [1e+00, 1e+00]
  Bounds range     [0e+00, 0e+00]
  RHS range        [1e+00, 6e+06]
Presolve removed 215 rows and 196 columns
Presolve time: 0.01s
Presolved: 989 rows, 875 columns, 4880 nonzeros
Variable types: 863 continuous, 12 integer (12 binary)
Found heuristic solution: objective 1.0000000

Root relaxation: objective 1.000000e+03, 1004 iterations, 0.01 seconds (0.02 work units)

    Nodes    |    Current Node    |     Objective Bounds      |     Work
 Expl Unexpl |  Obj  Depth IntInf | Incumbent    BestBd   Gap | It/Node Time

     0     0 1000.00000    0    1    1.00000 1000.00000      -     -    0s
     0     0 1000.00000    0    4    1.00000 1000.00000      -     -    0s
H    0     0                     124.7899160 1000.00000   701%     -    0s
     0     0 1000.00000    0    3  124.78992 1000.00000   701%     -    0s
     0     0 1000.00000    0    3  124.78992 1000.00000   701%     -    0s
     0     0  500.00000    0    3  124.78992  500.00000   301%     -    0s
H    0     0                     146.1538462  500.00000   242%     -    0s
     0     0  350.00000    0    1  146.15385  350.00000   139%     -    0s
     0     0  250.00000    0    2  146.15385  250.00000  71.1%     -    0s
     0     2  250.00000    0    2  146.15385  250.00000  71.1%     -    0s
H    6     8                     149.1666667  250.00000  67.6%  25.8    0s
*   38    38               6     163.7142857  200.00000  22.2%  54.1    0s

Cutting planes:
  Gomory: 1
  Implied bound: 2
  MIR: 23
  Flow cover: 4
  RLT: 35
  Relax-and-lift: 2

Explored 80 nodes (4788 simplex iterations) in 0.15 seconds (0.23 work units)
Thread count was 8 (of 8 available processors)

Solution count 5: 163.714 149.167 146.154 ... 1

Optimal solution found (tolerance 5.00e-02)
Best objective 1.637142857143e+02, best bound 1.637142857143e+02, gap 0.0000%

User-callback calls 657, time in user-callback 0.00 sec

Gurobi 9.5.2 (mac64[arm]) logging started Tue May  9 21:15:33 2023

Set parameter LogFile to value "./ccga_results/2023-05-09 21-15-22-437/FMP_TimeStampConvert_gurobi_log.txt"

Gurobi 9.5.2 (mac64[arm]) logging started Tue May  9 21:15:33 2023

Set parameter LogFile to value "./ccga_results/2023-05-09 21-15-22-437/FMP_TimeStampConvert_gurobi_log.txt"
Set parameter TimeLimit to value 180
Gurobi Optimizer version 9.5.2 build v9.5.2rc0 (mac64[arm])
Thread count: 8 physical cores, 8 logical processors, using up to 8 threads
Optimize a model with 1204 rows, 1071 columns and 5966 nonzeros
Model fingerprint: 0xd8ca1d26
Variable types: 1047 continuous, 24 integer (24 binary)
Coefficient statistics:
  Matrix range     [9e-01, 6e+06]
  Objective range  [1e+00, 1e+00]
  Bounds range     [0e+00, 0e+00]
  RHS range        [1e+00, 6e+06]
Presolve removed 159 rows and 119 columns
Presolve time: 0.01s
Presolved: 1045 rows, 952 columns, 5356 nonzeros
Variable types: 940 continuous, 12 integer (12 binary)
Found heuristic solution: objective 1.0000000

Root relaxation: objective 1.000000e+03, 1040 iterations, 0.01 seconds (0.02 work units)

    Nodes    |    Current Node    |     Objective Bounds      |     Work
 Expl Unexpl |  Obj  Depth IntInf | Incumbent    BestBd   Gap | It/Node Time

     0     0 1000.00000    0    1    1.00000 1000.00000      -     -    0s
     0     0  350.00000    0    1    1.00000  350.00000      -     -    0s
H    0     0                      10.6666667  350.00000  3181%     -    0s
H    0     0                     146.1538462  350.00000   139%     -    0s
     0     0  290.00003    0    1  146.15385  290.00003  98.4%     -    0s
     0     0  290.00000    0    1  146.15385  290.00000  98.4%     -    0s
     0     0  250.00000    0    1  146.15385  250.00000  71.1%     -    0s
     0     0  173.33333    0    2  146.15385  173.33333  18.6%     -    0s
     0     2  173.33333    0    2  146.15385  173.33333  18.6%     -    0s

Cutting planes:
  Gomory: 1
  Implied bound: 3
  MIR: 17
  Flow cover: 4
  RLT: 31
  Relax-and-lift: 1

Explored 59 nodes (2759 simplex iterations) in 0.15 seconds (0.23 work units)
Thread count was 8 (of 8 available processors)

Solution count 3: 146.154 10.6667 1 

Optimal solution found (tolerance 5.00e-02)
Best objective 1.461538461538e+02, best bound 1.500000000000e+02, gap 2.6316%

User-callback calls 622, time in user-callback 0.00 sec

Gurobi 9.5.2 (mac64[arm]) logging started Tue May  9 21:15:33 2023

Set parameter LogFile to value "./ccga_results/2023-05-09 21-15-22-437/FMP_TimeStampConvert_gurobi_log.txt"

Gurobi 9.5.2 (mac64[arm]) logging started Tue May  9 21:15:33 2023

Set parameter LogFile to value "./ccga_results/2023-05-09 21-15-22-437/FMP_TimeStampConvert_gurobi_log.txt"
Set parameter TimeLimit to value 180
Gurobi Optimizer version 9.5.2 build v9.5.2rc0 (mac64[arm])
Thread count: 8 physical cores, 8 logical processors, using up to 8 threads
Optimize a model with 1204 rows, 1071 columns and 5992 nonzeros
Model fingerprint: 0xc9aee667
Variable types: 1047 continuous, 24 integer (24 binary)
Coefficient statistics:
  Matrix range     [9e-01, 6e+06]
  Objective range  [1e+00, 1e+00]
  Bounds range     [0e+00, 0e+00]
  RHS range        [1e+00, 6e+06]
Presolve removed 143 rows and 95 columns
Presolve time: 0.01s
Presolved: 1061 rows, 976 columns, 5500 nonzeros
Variable types: 964 continuous, 12 integer (12 binary)
Found heuristic solution: objective 1.0000000

Root relaxation: objective 3.500000e+02, 624 iterations, 0.01 seconds (0.01 work units)

    Nodes    |    Current Node    |     Objective Bounds      |     Work
 Expl Unexpl |  Obj  Depth IntInf | Incumbent    BestBd   Gap | It/Node Time

     0     0  350.00000    0    1    1.00000  350.00000      -     -    0s
     0     0  315.00000    0    1    1.00000  315.00000      -     -    0s
H    0     0                       6.0000000  315.00000  5150%     -    0s
     0     0  265.00000    0    1    6.00000  265.00000  4317%     -    0s
     0     0  250.00000    0    1    6.00000  250.00000  4067%     -    0s
     0     0  170.00000    0    1    6.00000  170.00000  2733%     -    0s
     0     0  150.00000    0    3    6.00000  150.00000  2400%     -    0s
     0     2  150.00000    0    3    6.00000  150.00000  2400%     -    0s
*   90    85              12       8.7500000  100.00000  1043%  96.4    0s
*   91    85              12      14.0000000  100.00000   614%  96.3    0s
